tsp_instances/TSP50/instance53.tsp
NODE_COORD_SECTION
0 6 185
1 68 38
2 123 179
3 18 116
4 53 94
5 156 73
6 44 110
7 49 44
8 145 110
9 117 66
10 16 106
11 183 185
12 2 166
13 162 168
14 157 67
15 88 19
16 31 174
17 153 66
18 186 200
19 184 135
20 86 57
21 166 156
22 44 44
23 177 22
24 163 141
25 158 154
26 165 176
27 158 171
28 197 110
29 137 116
30 35 113
31 170 184
32 120 190
33 176 164
34 197 96
35 125 95
36 28 163
37 19 89
38 177 174
39 137 135
40 61 186
41 119 18
42 178 81
43 173 22
44 97 55
45 187 48
46 34 123
47 71 41
48 113 106
49 122 91
