tsp_instances/TSP50/instance53.opt.tour
TOUR_SECTION
1
13
37
47
4
11
38
31
7
5
23
8
2
48
16
42
21
45
10
50
36
49
40
30
9
6
15
18
44
24
46
43
35
29
20
25
26
22
34
39
12
19
32
27
14
28
3
33
41
17
-1